1 1 2 0
1 -1 3 0
1 -1 -4 0
1 -1 -5 0
1 -2 3 0
1 -2 -6 0
1 2 -4 0
1 -2 -5 0
1 -7 -8 0
1 -7 4 0
1 -7 -5 0
1 -8 9 0
1 -8 -10 0
1 -8 -3 0
1 8 6 0
1 8 -11 0
1 -8 12 0
1 -8 -4 0
1 6 13 0
1 6 -14 0
1 -6 2 0
1 -6 -15 0
1 -6 -16 0
1 -6 17 0
1 6 7 0
1 6 5 0
1 -5 -18 0
1 5 14 0
1 -5 -8 0
1 5 2 0
1 5 6 0
1 5 19 0
1 -5 -16 0
1 -5 -17 0
1 5 -7 0
1 5 1 0
1 -3 -8 0
1 -3 -20 0
1 -3 -1 0
1 3 4 0
1 4 13 0
1 -4 21 0
1 4 8 0
1 -4 2 0
1 -4 -3 0
1 4 -19 0
1 -4 -20 0
1 -4 -7 0
1 4 1 0
1 -4 22 0
1 -17 -9 0
1 17 -10 0
1 17 14 0
1 -17 11 0
1 -17 -12 0
1 -17 23 0
1 -14 9 0
1 14 21 0
1 -14 -6 0
1 -14 -11 0
1 14 -12 0
1 14 17 0
1 -14 -5 0
1 -16 -9 0
1 16 24 0
1 -16 -25 0
1 -16 -26 0
1 -16 6 0
1 16 11 0
1 -16 27 0
1 16 -20 0
1 -16 28 0
1 -16 -5 0
1 -24 -9 0
1 24 -10 0
1 -24 -25 0
1 -24 -29 0
1 -24 -26 0
1 -24 -6 0
1 24 11 0
1 -24 -12 0
1 -24 5 0
1 -12 -30 0
1 12 31 0
1 -12 24 0
1 -12 -14 0
1 -12 32 0
1 12 33 0
1 -12 16 0
1 12 7 0
1 12 34 0
1 10 30 0
1 10 -8 0
1 10 32 0
1 -10 -33 0
1 -10 12 0
1 10 16 0
1 10 -7 0
1 10 -34 0
1 11 -9 0
1 11 -35 0
1 -11 -13 0
1 11 -24 0
1 -11 -8 0
1 -11 -32 0
1 -11 36 0
1 11 19 0
1 11 7 0
1 11 34 0
1 9 -35 0
1 -9 -13 0
1 9 -24 0
1 9 -14 0
1 -9 8 0
1 -9 -11 0
1 -9 19 0
1 9 17 0
1 -9 -34 0
1 -37 31 0
1 -37 25 0
1 37 -26 0
1 -37 -28 0
1 31 -10 0
1 -31 13 0
1 31 25 0
1 31 -26 0
1 31 -37 0
1 31 -12 0
1 -31 27 0
1 31 28 0
1 33 30 0
1 33 -10 0
1 -33 25 0
1 -33 26 0
1 33 -36 0
1 -33 -12 0
1 33 27 0
1 -33 28 0
1 -30 35 0
1 30 -10 0
1 30 25 0
1 30 -26 0
1 -30 -33 0
1 -30 -12 0
1 30 27 0
1 30 -28 0
1 28 -30 0
1 28 31 0
1 -28 26 0
1 -28 -37 0
1 -28 16 0
1 26 -30 0
1 -26 -33 0
1 -26 16 0
1 -26 -28 0
1 27 31 0
1 -27 -24 0
1 27 25 0
1 -27 -32 0
1 -27 37 0
1 27 34 0
1 -25 30 0
1 -25 31 0
1 25 24 0
1 25 -32 0
1 25 37 0
1 25 16 0
1 -25 27 0
1 -25 -38 0
1 -23 -39 0
1 23 40 0
1 -23 -3 0
1 -23 41 0
1 -23 -42 0
1 -21 39 0
1 -21 -14 0
1 -21 -3 0
1 21 42 0
1 21 -23 0
1 20 39 0
1 20 40 0
1 20 43 0
1 20 -44 0
1 -20 41 0
1 20 -16 0
1 20 -42 0
1 -20 -45 0
1 -20 -4 0
1 -29 -42 0
1 29 -24 0
1 29 -40 0
1 29 43 0
1 -29 -3 0
1 -29 -41 0
1 29 -20 0
1 29 46 0
1 -40 -42 0
1 40 -35 0
1 40 -29 0
1 -40 21 0
1 -40 36 0
1 -40 19 0
1 -40 -20 0
1 -40 -23 0
1 42 -35 0
1 42 -13 0
1 42 -36 0
1 42 -19 0
1 42 20 0
1 42 23 0
1 -39 -29 0
1 -39 -21 0
1 -41 -29 0
1 41 -39 0
1 41 21 0
1 41 -20 0
1 41 -23 0
1 19 -9 0
1 19 13 0
1 -19 -40 0
1 -19 43 0
1 19 -44 0
1 -19 3 0
1 -19 6 0
1 -19 37 0
1 -19 42 0
1 19 -46 0
1 -19 45 0
1 19 -4 0
1 19 5 0
1 13 -9 0
1 13 -40 0
1 -13 -43 0
1 13 3 0
1 -13 6 0
1 -13 -11 0
1 -13 42 0
1 13 46 0
1 13 45 0
1 13 -5 0
1 36 -18 0
1 -36 -9 0
1 36 -40 0
1 36 47 0
1 36 11 0
1 -36 42 0
1 -36 46 0
1 -36 22 0
1 35 -30 0
1 35 -9 0
1 -35 40 0
1 35 43 0
1 35 -47 0
1 35 -15 0
1 -35 11 0
1 35 36 0
1 35 -42 0
1 -35 46 0
1 -35 -45 0
1 -35 22 0
1 -44 35 0
1 44 -13 0
1 44 -29 0
1 -44 36 0
1 -44 -20 0
1 44 -45 0
1 44 -34 0
1 -45 -13 0
1 45 -29 0
1 -45 -44 0
1 -45 -48 0
1 45 19 0
1 45 -34 0
1 43 -35 0
1 -43 -13 0
1 43 29 0
1 -43 -36 0
1 -43 19 0
1 -43 -20 0
1 43 46 0
1 46 13 0
1 -46 29 0
1 -46 -36 0
1 46 19 0
1 -46 -20 0
1 32 18 0
1 32 -9 0
1 -32 10 0
1 32 25 0
1 -32 47 0
1 32 11 0
1 32 12 0
1 32 -34 0
1 34 9 0
1 -34 -18 0
1 -34 10 0
1 -34 -44 0
1 34 -47 0
1 -34 -32 0
1 -34 11 0
1 48 -18 0
1 -48 25 0
1 -48 -44 0
1 -48 47 0
1 -48 15 0
1 48 27 0
1 48 38 0
1 -48 -22 0
1 38 18 0
1 38 -25 0
1 38 44 0
1 38 15 0
1 38 27 0
1 -38 22 0
1 38 -45 0
1 15 18 0
1 15 -35 0
1 15 -48 0
1 15 32 0
1 -15 -6 0
1 -15 -34 0
1 -18 35 0
1 18 32 0
1 -18 5 0
1 18 -38 0
1 -47 -35 0
1 -47 -3 0
1 -47 -36 0
1 47 38 0
1 -22 47 0
1 22 36 0
1 22 38 0
